p cnf 275 1938
43 109 134 0
130 147 154 0
40 117 128 152 0
38 105 106 139 164 0
36 97 129 208 0
95 96 144 150 255 0
84 89 94 258 0
23 25 143 215 0
112 122 161 218 0
100 132 175 221 0
57 168 169 172 0
18 114 263 0
124 136 178 260 0
156 181 224 227 0
127 165 182 0
87 90 115 0
74 78 80 82 85 0
69 71 72 142 0
66 67 107 160 0
61 63 65 99 0
59 158 0
51 54 55 58 0
45 49 173 177 0
41 42 110 0
39 126 153 0
34 35 37 104 119 0
88 92 0
31 32 75 83 0
26 28 30 140 0
21 22 24 120 0
20 60 62 108 162 0
19 53 56 170 0
16 48 111 131 0
123 179 0
157 184 186 0
187 188 190 191 192 0
194 196 199 0
73 200 201 202 0
68 70 0
159 204 0
46 52 0
44 205 0
116 145 151 206 0
33 93 138 0
76 207 209 0
121 211 0
171 213 214 216 0
113 217 219 0
133 137 176 220 222 0
180 185 223 0
225 226 228 229 232 0
198 233 274 0
234 235 0
86 236 237 0
-36 -139 0
-139 -144 0
-89 -139 0
-36 -144 0
-36 -89 0
-89 -144 0
-85 -238 0
-72 -85 0
-67 -85 0
-72 -238 0
-67 -238 0
-67 -72 0
-49 -58 0
-58 -155 0
-58 -153 0
-58 -104 0
-58 -241 0
-49 -155 0
-49 -153 0
-49 -104 0
-49 -241 0
-153 -155 0
-104 -155 0
-155 -241 0
-104 -153 0
-153 -241 0
-104 -241 0
-30 -242 0
-108 -242 0
-101 -242 0
-170 -242 0
-111 -242 0
-30 -108 0
-30 -101 0
-30 -170 0
-30 -111 0
-101 -108 0
-108 -170 0
-108 -111 0
-101 -170 0
-101 -111 0
-111 -170 0
-183 -187 0
-187 -194 0
-91 -187 0
-81 -187 0
-187 -200 0
-183 -194 0
-91 -183 0
-81 -183 0
-183 -200 0
-91 -194 0
-81 -194 0
-194 -200 0
-81 -91 0
-91 -200 0
-81 -200 0
-204 -243 0
-58 -242 0
-58 -187 0
-58 -243 0
-187 -242 0
-242 -243 0
-187 -243 0
-30 -49 0
-49 -183 0
-49 -204 0
-30 -183 0
-30 -204 0
-183 -204 0
-85 -139 0
-139 -155 0
-108 -139 0
-139 -194 0
-85 -155 0
-85 -108 0
-85 -194 0
-108 -155 0
-155 -194 0
-108 -194 0
-36 -238 0
-36 -153 0
-36 -101 0
-36 -91 0
-153 -238 0
-101 -238 0
-91 -238 0
-101 -153 0
-91 -153 0
-91 -101 0
-72 -144 0
-104 -144 0
-144 -170 0
-81 -144 0
-72 -104 0
-72 -170 0
-72 -81 0
-104 -170 0
-81 -104 0
-81 -170 0
-67 -89 0
-89 -241 0
-89 -111 0
-89 -200 0
-67 -241 0
-67 -111 0
-67 -200 0
-111 -241 0
-200 -241 0
-111 -200 0
-117 -255 0
-117 -258 0
-77 -117 0
-255 -258 0
-77 -255 0
-77 -258 0
-175 -260 0
-175 -224 0
-175 -244 0
-224 -260 0
-244 -260 0
-224 -244 0
-83 -246 0
-56 -83 0
-48 -83 0
-83 -123 0
-56 -246 0
-48 -246 0
-123 -246 0
-48 -56 0
-56 -123 0
-48 -123 0
-157 -188 0
-79 -157 0
-157 -201 0
-70 -157 0
-79 -188 0
-188 -201 0
-70 -188 0
-79 -201 0
-70 -79 0
-70 -201 0
-138 -145 0
-145 -248 0
-145 -213 0
-145 -217 0
-138 -248 0
-138 -213 0
-138 -217 0
-213 -248 0
-217 -248 0
-213 -217 0
-220 -223 0
-220 -234 0
-86 -220 0
-220 -239 0
-223 -234 0
-86 -223 0
-223 -239 0
-86 -234 0
-234 -239 0
-86 -239 0
-83 -157 0
-83 -145 0
-83 -220 0
-145 -157 0
-157 -220 0
-145 -220 0
-188 -246 0
-138 -246 0
-223 -246 0
-138 -188 0
-188 -223 0
-138 -223 0
-117 -175 0
-255 -260 0
-56 -255 0
-79 -255 0
-248 -255 0
-234 -255 0
-56 -260 0
-79 -260 0
-248 -260 0
-234 -260 0
-56 -79 0
-56 -248 0
-56 -234 0
-79 -248 0
-79 -234 0
-234 -248 0
-224 -258 0
-48 -258 0
-201 -258 0
-213 -258 0
-86 -258 0
-48 -224 0
-201 -224 0
-213 -224 0
-86 -224 0
-48 -201 0
-48 -213 0
-48 -86 0
-201 -213 0
-86 -201 0
-86 -213 0
-77 -244 0
-77 -123 0
-70 -77 0
-77 -217 0
-77 -239 0
-123 -244 0
-70 -244 0
-217 -244 0
-239 -244 0
-70 -123 0
-123 -217 0
-123 -239 0
-70 -217 0
-70 -239 0
-217 -239 0
-215 -249 0
-218 -249 0
-215 -218 0
-55 -59 0
-59 -173 0
-59 -110 0
-59 -251 0
-59 -119 0
-59 -125 0
-55 -173 0
-55 -110 0
-55 -251 0
-55 -119 0
-55 -125 0
-110 -173 0
-173 -251 0
-119 -173 0
-125 -173 0
-110 -251 0
-110 -119 0
-110 -125 0
-119 -251 0
-125 -251 0
-119 -125 0
-32 -210 0
-28 -32 0
-24 -32 0
-20 -32 0
-19 -32 0
-16 -32 0
-28 -210 0
-24 -210 0
-20 -210 0
-19 -210 0
-16 -210 0
-24 -28 0
-20 -28 0
-19 -28 0
-16 -28 0
-20 -24 0
-19 -24 0
-16 -24 0
-19 -20 0
-16 -20 0
-16 -19 0
-184 -190 0
-166 -184 0
-184 -230 0
-184 -196 0
-184 -252 0
-184 -202 0
-166 -190 0
-190 -230 0
-190 -196 0
-190 -252 0
-190 -202 0
-166 -230 0
-166 -196 0
-166 -252 0
-166 -202 0
-196 -230 0
-230 -252 0
-202 -230 0
-196 -252 0
-196 -202 0
-202 -252 0
-64 -253 0
-159 -253 0
-52 -253 0
-205 -253 0
-118 -253 0
-253 -254 0
-64 -159 0
-52 -64 0
-64 -205 0
-64 -118 0
-64 -254 0
-52 -159 0
-159 -205 0
-118 -159 0
-159 -254 0
-52 -205 0
-52 -118 0
-52 -254 0
-118 -205 0
-205 -254 0
-118 -254 0
-93 -116 0
-76 -116 0
-116 -256 0
-116 -259 0
-116 -163 0
-116 -214 0
-76 -93 0
-93 -256 0
-93 -259 0
-93 -163 0
-93 -214 0
-76 -256 0
-76 -259 0
-76 -163 0
-76 -214 0
-256 -259 0
-163 -256 0
-214 -256 0
-163 -259 0
-214 -259 0
-163 -214 0
-176 -180 0
-176 -245 0
-176 -261 0
-176 -225 0
-176 -235 0
-176 -236 0
-180 -245 0
-180 -261 0
-180 -225 0
-180 -235 0
-180 -236 0
-245 -261 0
-225 -245 0
-235 -245 0
-236 -245 0
-225 -261 0
-235 -261 0
-236 -261 0
-225 -235 0
-225 -236 0
-235 -236 0
-59 -249 0
-32 -249 0
-184 -249 0
-249 -253 0
-116 -249 0
-176 -249 0
-32 -59 0
-59 -184 0
-59 -253 0
-59 -116 0
-59 -176 0
-32 -184 0
-32 -253 0
-32 -116 0
-32 -176 0
-184 -253 0
-116 -184 0
-176 -184 0
-116 -253 0
-176 -253 0
-116 -176 0
-55 -215 0
-210 -215 0
-190 -215 0
-64 -215 0
-93 -215 0
-180 -215 0
-55 -210 0
-55 -190 0
-55 -64 0
-55 -93 0
-55 -180 0
-190 -210 0
-64 -210 0
-93 -210 0
-180 -210 0
-64 -190 0
-93 -190 0
-180 -190 0
-64 -93 0
-64 -180 0
-93 -180 0
-173 -218 0
-28 -218 0
-166 -218 0
-159 -218 0
-76 -218 0
-218 -245 0
-28 -173 0
-166 -173 0
-159 -173 0
-76 -173 0
-173 -245 0
-28 -166 0
-28 -159 0
-28 -76 0
-28 -245 0
-159 -166 0
-76 -166 0
-166 -245 0
-76 -159 0
-159 -245 0
-76 -245 0
-24 -110 0
-110 -230 0
-52 -110 0
-110 -256 0
-110 -261 0
-24 -230 0
-24 -52 0
-24 -256 0
-24 -261 0
-52 -230 0
-230 -256 0
-230 -261 0
-52 -256 0
-52 -261 0
-256 -261 0
-20 -251 0
-196 -251 0
-205 -251 0
-251 -259 0
-225 -251 0
-20 -196 0
-20 -205 0
-20 -259 0
-20 -225 0
-196 -205 0
-196 -259 0
-196 -225 0
-205 -259 0
-205 -225 0
-225 -259 0
-19 -119 0
-119 -252 0
-118 -119 0
-119 -163 0
-119 -235 0
-19 -252 0
-19 -118 0
-19 -163 0
-19 -235 0
-118 -252 0
-163 -252 0
-235 -252 0
-118 -163 0
-118 -235 0
-163 -235 0
-16 -125 0
-125 -202 0
-125 -254 0
-125 -214 0
-125 -236 0
-16 -202 0
-16 -254 0
-16 -214 0
-16 -236 0
-202 -254 0
-202 -214 0
-202 -236 0
-214 -254 0
-236 -254 0
-214 -236 0
-132 -168 0
-132 -263 0
-132 -227 0
-132 -262 0
-168 -263 0
-168 -227 0
-168 -262 0
-227 -263 0
-262 -263 0
-227 -262 0
-82 -115 0
-115 -265 0
-115 -160 0
-65 -115 0
-82 -265 0
-82 -160 0
-65 -82 0
-160 -265 0
-65 -265 0
-65 -160 0
-42 -45 0
-45 -148 0
-39 -45 0
-42 -148 0
-39 -42 0
-39 -148 0
-22 -26 0
-26 -162 0
-26 -167 0
-22 -162 0
-22 -167 0
-162 -167 0
-141 -250 0
-121 -250 0
-216 -250 0
-219 -250 0
-121 -141 0
-141 -216 0
-141 -219 0
-121 -216 0
-121 -219 0
-216 -219 0
-193 -226 0
-193 -233 0
-193 -237 0
-193 -266 0
-226 -233 0
-226 -237 0
-226 -266 0
-233 -237 0
-233 -266 0
-237 -266 0
-26 -45 0
-115 -132 0
-42 -132 0
-22 -132 0
-132 -250 0
-132 -193 0
-42 -115 0
-22 -115 0
-115 -250 0
-115 -193 0
-22 -42 0
-42 -250 0
-42 -193 0
-22 -250 0
-22 -193 0
-193 -250 0
-82 -168 0
-148 -168 0
-162 -168 0
-141 -168 0
-168 -226 0
-82 -148 0
-82 -162 0
-82 -141 0
-82 -226 0
-148 -162 0
-141 -148 0
-148 -226 0
-141 -162 0
-162 -226 0
-141 -226 0
-263 -265 0
-39 -263 0
-167 -263 0
-121 -263 0
-233 -263 0
-39 -265 0
-167 -265 0
-121 -265 0
-233 -265 0
-39 -167 0
-39 -121 0
-39 -233 0
-121 -167 0
-167 -233 0
-121 -233 0
-160 -227 0
-216 -227 0
-227 -237 0
-160 -216 0
-160 -237 0
-216 -237 0
-65 -262 0
-219 -262 0
-262 -266 0
-65 -219 0
-65 -266 0
-219 -266 0
-50 -154 0
-50 -152 0
-50 -105 0
-50 -96 0
-50 -94 0
-152 -154 0
-105 -154 0
-96 -154 0
-94 -154 0
-105 -152 0
-96 -152 0
-94 -152 0
-96 -105 0
-94 -105 0
-94 -96 0
-102 -112 0
-100 -102 0
-102 -169 0
-102 -178 0
-102 -181 0
-100 -112 0
-112 -169 0
-112 -178 0
-112 -181 0
-100 -169 0
-100 -178 0
-100 -181 0
-169 -178 0
-169 -181 0
-178 -181 0
-182 -195 0
-90 -182 0
-80 -182 0
-71 -182 0
-66 -182 0
-90 -195 0
-80 -195 0
-71 -195 0
-66 -195 0
-80 -90 0
-71 -90 0
-66 -90 0
-71 -80 0
-66 -80 0
-66 -71 0
-37 -98 0
-206 -207 0
-206 -267 0
-206 -268 0
-207 -267 0
-207 -268 0
-267 -268 0
-133 -264 0
-133 -269 0
-133 -228 0
-264 -269 0
-228 -264 0
-228 -269 0
-50 -102 0
-50 -182 0
-50 -206 0
-50 -133 0
-102 -182 0
-102 -206 0
-102 -133 0
-182 -206 0
-133 -182 0
-133 -206 0
-112 -154 0
-154 -195 0
-154 -207 0
-154 -264 0
-112 -195 0
-112 -207 0
-112 -264 0
-195 -207 0
-195 -264 0
-207 -264 0
-100 -152 0
-90 -152 0
-152 -267 0
-152 -269 0
-90 -100 0
-100 -267 0
-100 -269 0
-90 -267 0
-90 -269 0
-267 -269 0
-105 -169 0
-80 -105 0
-105 -268 0
-105 -228 0
-80 -169 0
-169 -268 0
-169 -228 0
-80 -268 0
-80 -228 0
-228 -268 0
-96 -178 0
-71 -96 0
-37 -96 0
-71 -178 0
-37 -178 0
-37 -71 0
-94 -181 0
-66 -94 0
-94 -98 0
-66 -181 0
-98 -181 0
-66 -98 0
-130 -134 0
-134 -164 0
-95 -134 0
-84 -134 0
-134 -247 0
-130 -164 0
-95 -130 0
-84 -130 0
-130 -247 0
-95 -164 0
-84 -164 0
-164 -247 0
-84 -95 0
-95 -247 0
-84 -247 0
-122 -143 0
-57 -143 0
-124 -143 0
-143 -156 0
-143 -189 0
-57 -122 0
-122 -124 0
-122 -156 0
-122 -189 0
-57 -124 0
-57 -156 0
-57 -189 0
-124 -156 0
-124 -189 0
-156 -189 0
-270 -271 0
-78 -270 0
-69 -270 0
-107 -270 0
-99 -270 0
-78 -271 0
-69 -271 0
-107 -271 0
-99 -271 0
-69 -78 0
-78 -107 0
-78 -99 0
-69 -107 0
-69 -99 0
-99 -107 0
-54 -177 0
-35 -54 0
-54 -146 0
-54 -88 0
-35 -177 0
-146 -177 0
-88 -177 0
-35 -146 0
-35 -88 0
-88 -146 0
-191 -272 0
-191 -240 0
-73 -191 0
-68 -191 0
-240 -272 0
-73 -272 0
-68 -272 0
-73 -240 0
-68 -240 0
-68 -73 0
-103 -171 0
-103 -113 0
-113 -171 0
-134 -143 0
-134 -270 0
-54 -134 0
-134 -191 0
-143 -270 0
-54 -143 0
-143 -191 0
-54 -270 0
-191 -270 0
-54 -191 0
-122 -130 0
-130 -271 0
-130 -177 0
-130 -272 0
-122 -271 0
-122 -177 0
-122 -272 0
-177 -271 0
-271 -272 0
-177 -272 0
-57 -164 0
-78 -164 0
-57 -78 0
-95 -124 0
-69 -95 0
-35 -95 0
-95 -240 0
-95 -103 0
-69 -124 0
-35 -124 0
-124 -240 0
-103 -124 0
-35 -69 0
-69 -240 0
-69 -103 0
-35 -240 0
-35 -103 0
-103 -240 0
-84 -156 0
-84 -107 0
-84 -146 0
-73 -84 0
-84 -171 0
-107 -156 0
-146 -156 0
-73 -156 0
-156 -171 0
-107 -146 0
-73 -107 0
-107 -171 0
-73 -146 0
-146 -171 0
-73 -171 0
-189 -247 0
-99 -247 0
-88 -247 0
-68 -247 0
-113 -247 0
-99 -189 0
-88 -189 0
-68 -189 0
-113 -189 0
-88 -99 0
-68 -99 0
-99 -113 0
-68 -88 0
-88 -113 0
-68 -113 0
-109 -174 0
-174 -208 0
-150 -174 0
-174 -212 0
-109 -208 0
-109 -150 0
-109 -212 0
-150 -208 0
-208 -212 0
-150 -212 0
-25 -29 0
-18 -29 0
-29 -136 0
-29 -197 0
-18 -25 0
-25 -136 0
-25 -197 0
-18 -136 0
-18 -197 0
-136 -197 0
-165 -231 0
-165 -203 0
-142 -165 0
-63 -165 0
-203 -231 0
-142 -231 0
-63 -231 0
-142 -203 0
-63 -203 0
-63 -142 0
-51 -158 0
-34 -158 0
-92 -158 0
-34 -51 0
-51 -92 0
-34 -92 0
-75 -257 0
-53 -75 0
-75 -179 0
-53 -257 0
-179 -257 0
-53 -179 0
-29 -174 0
-165 -174 0
-158 -174 0
-75 -174 0
-29 -165 0
-29 -158 0
-29 -75 0
-158 -165 0
-75 -165 0
-75 -158 0
-25 -109 0
-109 -231 0
-51 -109 0
-109 -257 0
-25 -231 0
-25 -51 0
-25 -257 0
-51 -231 0
-231 -257 0
-51 -257 0
-18 -208 0
-203 -208 0
-18 -203 0
-136 -150 0
-142 -150 0
-34 -150 0
-53 -150 0
-136 -142 0
-34 -136 0
-53 -136 0
-34 -142 0
-53 -142 0
-34 -53 0
-197 -212 0
-63 -212 0
-92 -212 0
-179 -212 0
-63 -197 0
-92 -197 0
-179 -197 0
-63 -92 0
-63 -179 0
-92 -179 0
-43 -47 0
-47 -147 0
-40 -47 0
-47 -106 0
-47 -129 0
-47 -273 0
-43 -147 0
-40 -43 0
-43 -106 0
-43 -129 0
-43 -273 0
-40 -147 0
-106 -147 0
-129 -147 0
-147 -273 0
-40 -106 0
-40 -129 0
-40 -273 0
-106 -129 0
-106 -273 0
-129 -273 0
-23 -27 0
-27 -161 0
-27 -221 0
-27 -172 0
-27 -114 0
-27 -275 0
-23 -161 0
-23 -221 0
-23 -172 0
-23 -114 0
-23 -275 0
-161 -221 0
-161 -172 0
-114 -161 0
-161 -275 0
-172 -221 0
-114 -221 0
-221 -275 0
-114 -172 0
-172 -275 0
-114 -275 0
-15 -127 0
-14 -127 0
-87 -127 0
-74 -127 0
-13 -127 0
-61 -127 0
-14 -15 0
-15 -87 0
-15 -74 0
-13 -15 0
-15 -61 0
-14 -87 0
-14 -74 0
-13 -14 0
-14 -61 0
-74 -87 0
-13 -87 0
-61 -87 0
-13 -74 0
-61 -74 0
-13 -61 0
-12 -31 0
-31 -140 0
-31 -120 0
-31 -62 0
-11 -31 0
-12 -140 0
-12 -120 0
-12 -62 0
-11 -12 0
-120 -140 0
-62 -140 0
-11 -140 0
-62 -120 0
-11 -120 0
-11 -62 0
-186 -192 0
-10 -186 0
-9 -186 0
-186 -199 0
-8 -186 0
-10 -192 0
-9 -192 0
-192 -199 0
-8 -192 0
-9 -10 0
-10 -199 0
-8 -10 0
-9 -199 0
-8 -9 0
-8 -199 0
-33 -151 0
-151 -209 0
-149 -151 0
-7 -151 0
-151 -211 0
-33 -209 0
-33 -149 0
-7 -33 0
-33 -211 0
-149 -209 0
-7 -209 0
-209 -211 0
-7 -149 0
-149 -211 0
-7 -211 0
-137 -185 0
-17 -137 0
-135 -137 0
-137 -229 0
-137 -198 0
-17 -185 0
-135 -185 0
-185 -229 0
-185 -198 0
-17 -135 0
-17 -229 0
-17 -198 0
-135 -229 0
-135 -198 0
-198 -229 0
-27 -47 0
-47 -127 0
-31 -47 0
-47 -186 0
-47 -151 0
-47 -137 0
-27 -127 0
-27 -31 0
-27 -186 0
-27 -151 0
-27 -137 0
-31 -127 0
-127 -186 0
-127 -151 0
-127 -137 0
-31 -186 0
-31 -151 0
-31 -137 0
-151 -186 0
-137 -186 0
-137 -151 0
-23 -43 0
-15 -43 0
-12 -43 0
-43 -192 0
-33 -43 0
-43 -185 0
-15 -23 0
-12 -23 0
-23 -192 0
-23 -33 0
-23 -185 0
-12 -15 0
-15 -192 0
-15 -33 0
-15 -185 0
-12 -192 0
-12 -33 0
-12 -185 0
-33 -192 0
-185 -192 0
-33 -185 0
-147 -161 0
-14 -147 0
-140 -147 0
-10 -147 0
-147 -209 0
-17 -147 0
-14 -161 0
-140 -161 0
-10 -161 0
-161 -209 0
-17 -161 0
-14 -140 0
-10 -14 0
-14 -209 0
-14 -17 0
-10 -140 0
-140 -209 0
-17 -140 0
-10 -209 0
-10 -17 0
-17 -209 0
-40 -221 0
-40 -87 0
-40 -120 0
-9 -40 0
-40 -149 0
-40 -135 0
-87 -221 0
-120 -221 0
-9 -221 0
-149 -221 0
-135 -221 0
-87 -120 0
-9 -87 0
-87 -149 0
-87 -135 0
-9 -120 0
-120 -149 0
-120 -135 0
-9 -149 0
-9 -135 0
-135 -149 0
-106 -172 0
-74 -106 0
-62 -106 0
-106 -199 0
-7 -106 0
-106 -229 0
-74 -172 0
-62 -172 0
-172 -199 0
-7 -172 0
-172 -229 0
-62 -74 0
-74 -199 0
-7 -74 0
-74 -229 0
-62 -199 0
-7 -62 0
-62 -229 0
-7 -199 0
-199 -229 0
-7 -229 0
-114 -129 0
-13 -129 0
-11 -129 0
-8 -129 0
-129 -211 0
-129 -198 0
-13 -114 0
-11 -114 0
-8 -114 0
-114 -211 0
-114 -198 0
-11 -13 0
-8 -13 0
-13 -211 0
-13 -198 0
-8 -11 0
-11 -211 0
-11 -198 0
-8 -211 0
-8 -198 0
-198 -211 0
-273 -275 0
-61 -273 0
-61 -275 0
-38 -128 0
-97 -128 0
-38 -97 0
-6 -41 0
-41 -126 0
-5 -41 0
-6 -126 0
-5 -6 0
-5 -126 0
-21 -60 0
-4 -21 0
-21 -131 0
-4 -60 0
-60 -131 0
-4 -131 0
-3 -46 0
-3 -44 0
-2 -3 0
-44 -46 0
-2 -46 0
-2 -44 0
-1 -222 0
-222 -232 0
-222 -274 0
-1 -232 0
-1 -274 0
-232 -274 0
-3 -222 0
-41 -128 0
-21 -128 0
-46 -128 0
-1 -128 0
-21 -41 0
-41 -46 0
-1 -41 0
-21 -46 0
-1 -21 0
-1 -46 0
-6 -38 0
-38 -60 0
-38 -44 0
-38 -232 0
-6 -60 0
-6 -44 0
-6 -232 0
-44 -60 0
-60 -232 0
-44 -232 0
-97 -126 0
-4 -97 0
-2 -97 0
-97 -274 0
-4 -126 0
-2 -126 0
-126 -274 0
-2 -4 0
-4 -274 0
-2 -274 0
-5 -131 0
-215 -249 0
-218 -249 0
-215 -218 0
-50 -154 0
-50 -102 0
-50 -112 0
-50 -182 0
-50 -195 0
-102 -154 0
-112 -154 0
-154 -182 0
-154 -195 0
-102 -112 0
-102 -182 0
-102 -195 0
-112 -182 0
-112 -195 0
-182 -195 0
-130 -134 0
-134 -143 0
-122 -134 0
-134 -270 0
-134 -271 0
-130 -143 0
-122 -130 0
-130 -270 0
-130 -271 0
-122 -143 0
-143 -270 0
-143 -271 0
-122 -270 0
-122 -271 0
-270 -271 0
-109 -174 0
-29 -174 0
-25 -174 0
-165 -174 0
-174 -231 0
-29 -109 0
-25 -109 0
-109 -165 0
-109 -231 0
-25 -29 0
-29 -165 0
-29 -231 0
-25 -165 0
-25 -231 0
-165 -231 0
-43 -47 0
-47 -147 0
-27 -47 0
-23 -47 0
-47 -161 0
-47 -127 0
-15 -47 0
-14 -47 0
-43 -147 0
-27 -43 0
-23 -43 0
-43 -161 0
-43 -127 0
-15 -43 0
-14 -43 0
-27 -147 0
-23 -147 0
-147 -161 0
-127 -147 0
-15 -147 0
-14 -147 0
-23 -27 0
-27 -161 0
-27 -127 0
-15 -27 0
-14 -27 0
-23 -161 0
-23 -127 0
-15 -23 0
-14 -23 0
-127 -161 0
-15 -161 0
-14 -161 0
-15 -127 0
-14 -127 0
-14 -15 0
-36 -139 0
-85 -139 0
-139 -238 0
-36 -85 0
-36 -238 0
-85 -238 0
-117 -175 0
-132 -168 0
-132 -263 0
-115 -132 0
-82 -132 0
-132 -265 0
-168 -263 0
-115 -168 0
-82 -168 0
-168 -265 0
-115 -263 0
-82 -263 0
-263 -265 0
-82 -115 0
-115 -265 0
-82 -265 0
-105 -152 0
-100 -152 0
-152 -169 0
-90 -152 0
-80 -152 0
-100 -105 0
-105 -169 0
-90 -105 0
-80 -105 0
-100 -169 0
-90 -100 0
-80 -100 0
-90 -169 0
-80 -169 0
-80 -90 0
-57 -164 0
-78 -164 0
-57 -78 0
-18 -208 0
-203 -208 0
-18 -203 0
-40 -106 0
-40 -129 0
-40 -221 0
-40 -172 0
-40 -114 0
-40 -87 0
-40 -74 0
-13 -40 0
-106 -129 0
-106 -221 0
-106 -172 0
-106 -114 0
-87 -106 0
-74 -106 0
-13 -106 0
-129 -221 0
-129 -172 0
-114 -129 0
-87 -129 0
-74 -129 0
-13 -129 0
-172 -221 0
-114 -221 0
-87 -221 0
-74 -221 0
-13 -221 0
-114 -172 0
-87 -172 0
-74 -172 0
-13 -172 0
-87 -114 0
-74 -114 0
-13 -114 0
-74 -87 0
-13 -87 0
-13 -74 0
-38 -128 0
-97 -128 0
-38 -97 0
-89 -144 0
-72 -144 0
-67 -144 0
-72 -89 0
-67 -89 0
-67 -72 0
-255 -258 0
-77 -255 0
-255 -260 0
-224 -255 0
-244 -255 0
-77 -258 0
-258 -260 0
-224 -258 0
-244 -258 0
-77 -260 0
-77 -224 0
-77 -244 0
-224 -260 0
-244 -260 0
-224 -244 0
-227 -262 0
-160 -227 0
-65 -227 0
-160 -262 0
-65 -262 0
-65 -160 0
-94 -96 0
-96 -178 0
-96 -181 0
-71 -96 0
-66 -96 0
-94 -178 0
-94 -181 0
-71 -94 0
-66 -94 0
-178 -181 0
-71 -178 0
-66 -178 0
-71 -181 0
-66 -181 0
-66 -71 0
-84 -95 0
-95 -247 0
-95 -124 0
-95 -156 0
-95 -189 0
-69 -95 0
-95 -107 0
-95 -99 0
-84 -247 0
-84 -124 0
-84 -156 0
-84 -189 0
-69 -84 0
-84 -107 0
-84 -99 0
-124 -247 0
-156 -247 0
-189 -247 0
-69 -247 0
-107 -247 0
-99 -247 0
-124 -156 0
-124 -189 0
-69 -124 0
-107 -124 0
-99 -124 0
-156 -189 0
-69 -156 0
-107 -156 0
-99 -156 0
-69 -189 0
-107 -189 0
-99 -189 0
-69 -107 0
-69 -99 0
-99 -107 0
-150 -212 0
-136 -150 0
-150 -197 0
-142 -150 0
-63 -150 0
-136 -212 0
-197 -212 0
-142 -212 0
-63 -212 0
-136 -197 0
-136 -142 0
-63 -136 0
-142 -197 0
-63 -197 0
-63 -142 0
-273 -275 0
-61 -273 0
-61 -275 0
-49 -58 0
-58 -242 0
-30 -58 0
-58 -187 0
-58 -183 0
-49 -242 0
-30 -49 0
-49 -187 0
-49 -183 0
-30 -242 0
-187 -242 0
-183 -242 0
-30 -187 0
-30 -183 0
-183 -187 0
-83 -246 0
-83 -157 0
-83 -188 0
-157 -246 0
-188 -246 0
-157 -188 0
-55 -59 0
-59 -173 0
-32 -59 0
-59 -210 0
-28 -59 0
-59 -184 0
-59 -190 0
-59 -166 0
-55 -173 0
-32 -55 0
-55 -210 0
-28 -55 0
-55 -184 0
-55 -190 0
-55 -166 0
-32 -173 0
-173 -210 0
-28 -173 0
-173 -184 0
-173 -190 0
-166 -173 0
-32 -210 0
-28 -32 0
-32 -184 0
-32 -190 0
-32 -166 0
-28 -210 0
-184 -210 0
-190 -210 0
-166 -210 0
-28 -184 0
-28 -190 0
-28 -166 0
-184 -190 0
-166 -184 0
-166 -190 0
-26 -45 0
-54 -177 0
-54 -191 0
-54 -272 0
-177 -191 0
-177 -272 0
-191 -272 0
-51 -158 0
-75 -158 0
-158 -257 0
-51 -75 0
-51 -257 0
-75 -257 0
-12 -31 0
-31 -140 0
-31 -186 0
-31 -192 0
-10 -31 0
-12 -140 0
-12 -186 0
-12 -192 0
-10 -12 0
-140 -186 0
-140 -192 0
-10 -140 0
-186 -192 0
-10 -186 0
-10 -192 0
-153 -155 0
-108 -155 0
-101 -155 0
-155 -194 0
-91 -155 0
-108 -153 0
-101 -153 0
-153 -194 0
-91 -153 0
-101 -108 0
-108 -194 0
-91 -108 0
-101 -194 0
-91 -101 0
-91 -194 0
-110 -251 0
-24 -110 0
-20 -110 0
-110 -230 0
-110 -196 0
-24 -251 0
-20 -251 0
-230 -251 0
-196 -251 0
-20 -24 0
-24 -230 0
-24 -196 0
-20 -230 0
-20 -196 0
-196 -230 0
-42 -148 0
-39 -42 0
-22 -42 0
-42 -162 0
-42 -167 0
-39 -148 0
-22 -148 0
-148 -162 0
-148 -167 0
-22 -39 0
-39 -162 0
-39 -167 0
-22 -162 0
-22 -167 0
-162 -167 0
-62 -120 0
-11 -120 0
-9 -120 0
-120 -199 0
-8 -120 0
-11 -62 0
-9 -62 0
-62 -199 0
-8 -62 0
-9 -11 0
-11 -199 0
-8 -11 0
-9 -199 0
-8 -9 0
-8 -199 0
-6 -41 0
-41 -126 0
-21 -41 0
-41 -60 0
-4 -41 0
-6 -126 0
-6 -21 0
-6 -60 0
-4 -6 0
-21 -126 0
-60 -126 0
-4 -126 0
-21 -60 0
-4 -21 0
-4 -60 0
-104 -241 0
-104 -170 0
-104 -111 0
-81 -104 0
-104 -200 0
-170 -241 0
-111 -241 0
-81 -241 0
-200 -241 0
-111 -170 0
-81 -170 0
-170 -200 0
-81 -111 0
-111 -200 0
-81 -200 0
-48 -56 0
-56 -123 0
-56 -79 0
-56 -201 0
-56 -70 0
-48 -123 0
-48 -79 0
-48 -201 0
-48 -70 0
-79 -123 0
-123 -201 0
-70 -123 0
-79 -201 0
-70 -79 0
-70 -201 0
-119 -125 0
-19 -119 0
-16 -119 0
-119 -252 0
-119 -202 0
-19 -125 0
-16 -125 0
-125 -252 0
-125 -202 0
-16 -19 0
-19 -252 0
-19 -202 0
-16 -252 0
-16 -202 0
-202 -252 0
-37 -98 0
-35 -146 0
-35 -88 0
-35 -240 0
-35 -73 0
-35 -68 0
-88 -146 0
-146 -240 0
-73 -146 0
-68 -146 0
-88 -240 0
-73 -88 0
-68 -88 0
-73 -240 0
-68 -240 0
-68 -73 0
-34 -92 0
-34 -53 0
-34 -179 0
-53 -92 0
-92 -179 0
-53 -179 0
-5 -131 0
-204 -243 0
-138 -145 0
-145 -220 0
-145 -223 0
-138 -220 0
-138 -223 0
-220 -223 0
-64 -253 0
-159 -253 0
-116 -253 0
-93 -253 0
-76 -253 0
-176 -253 0
-180 -253 0
-245 -253 0
-64 -159 0
-64 -116 0
-64 -93 0
-64 -76 0
-64 -176 0
-64 -180 0
-64 -245 0
-116 -159 0
-93 -159 0
-76 -159 0
-159 -176 0
-159 -180 0
-159 -245 0
-93 -116 0
-76 -116 0
-116 -176 0
-116 -180 0
-116 -245 0
-76 -93 0
-93 -176 0
-93 -180 0
-93 -245 0
-76 -176 0
-76 -180 0
-76 -245 0
-176 -180 0
-176 -245 0
-180 -245 0
-206 -207 0
-133 -206 0
-206 -264 0
-133 -207 0
-207 -264 0
-133 -264 0
-33 -151 0
-151 -209 0
-137 -151 0
-151 -185 0
-17 -151 0
-33 -209 0
-33 -137 0
-33 -185 0
-17 -33 0
-137 -209 0
-185 -209 0
-17 -209 0
-137 -185 0
-17 -137 0
-17 -185 0
-3 -222 0
-52 -205 0
-52 -256 0
-52 -259 0
-52 -261 0
-52 -225 0
-205 -256 0
-205 -259 0
-205 -261 0
-205 -225 0
-256 -259 0
-256 -261 0
-225 -256 0
-259 -261 0
-225 -259 0
-225 -261 0
-141 -250 0
-121 -250 0
-193 -250 0
-226 -250 0
-233 -250 0
-121 -141 0
-141 -193 0
-141 -226 0
-141 -233 0
-121 -193 0
-121 -226 0
-121 -233 0
-193 -226 0
-193 -233 0
-226 -233 0
-267 -268 0
-267 -269 0
-228 -267 0
-268 -269 0
-228 -268 0
-228 -269 0
-7 -149 0
-149 -211 0
-135 -149 0
-149 -229 0
-149 -198 0
-7 -211 0
-7 -135 0
-7 -229 0
-7 -198 0
-135 -211 0
-211 -229 0
-198 -211 0
-135 -229 0
-135 -198 0
-198 -229 0
-44 -46 0
-2 -46 0
-1 -46 0
-46 -232 0
-46 -274 0
-2 -44 0
-1 -44 0
-44 -232 0
-44 -274 0
-1 -2 0
-2 -232 0
-2 -274 0
-1 -232 0
-1 -274 0
-232 -274 0
-213 -248 0
-217 -248 0
-234 -248 0
-86 -248 0
-239 -248 0
-213 -217 0
-213 -234 0
-86 -213 0
-213 -239 0
-217 -234 0
-86 -217 0
-217 -239 0
-86 -234 0
-234 -239 0
-86 -239 0
-118 -254 0
-118 -163 0
-118 -214 0
-118 -235 0
-118 -236 0
-163 -254 0
-214 -254 0
-235 -254 0
-236 -254 0
-163 -214 0
-163 -235 0
-163 -236 0
-214 -235 0
-214 -236 0
-235 -236 0
-216 -219 0
-216 -237 0
-216 -266 0
-219 -237 0
-219 -266 0
-237 -266 0
-103 -171 0
-103 -113 0
-113 -171 0
